&CONTROL
   calculation      = 'vc-relax'
   restart_mode     = 'from_scratch'
   tprnfor          = .true.
   etot_conv_thr    = 1e-05
   forc_conv_thr    = 0.0001
/
&SYSTEM
   ecutwfc          = 60
   ecutrho          = 480
   occupations      = 'smearing'
   degauss          = 0.01
   smearing         = 'cold'
   input_dft        = 'rpbe'
   vdw_corr         = 'dft-d3'
   ntyp             = 3
   nat              = 106
   ibrav            = 0
/
&ELECTRONS
   conv_thr         = 1e-08
   mixing_beta      = 0.7
/
&IONS
   ion_dynamics     = 'bfgs'
/
&CELL
/
&FCP
/
&RISM
/
ATOMIC_SPECIES
Ca 40.078 Ca_ONCV_PBE-1.2.upf
B 10.81 B_ONCV_PBE-1.2.upf
Li 6.94 Li_ONCV_PBE-1.2.upf

K_POINTS gamma

CELL_PARAMETERS angstrom
4.14060000000000 0.00000000000000 0.00000000000000
0.00000000000000 4.14060000000000 0.00000000000000
0.00000000000000 0.00000000000000 78.50357800000000

ATOMIC_POSITIONS angstrom
Ca 0.0000000000 0.0000000000 68.8997642818  
Ca 0.0000000000 0.0000000000 65.0192539177  
Ca 0.0000000000 0.0000000000 60.9111616809  
Ca 0.0000000000 0.0000000000 56.7976526973  
Ca 0.0000000000 0.0000000000 52.6771568952  
Ca 0.0000000000 0.0000000000 48.5489677425  
Ca 0.0000000000 0.0000000000 44.4174814396  
Ca 0.0000000000 0.0000000000 40.2847390793  
Ca 0.0000000000 0.0000000000 36.1528602585  
Ca 0.0000000000 0.0000000000 32.0150936692  
Ca 0.0000000000 0.0000000000 27.8804672231  
Ca 0.0000000000 0.0000000000 23.7476463593  
Ca 0.0000000000 0.0000000000 19.6195357102  
Ca 0.0000000000 0.0000000000 15.4932306433  
Ca 0.0000000000 0.0000000000 11.3430604888  
B 0.8409682818 2.0703000000 67.1770032626  
B 0.8355979236 2.0703000000 63.0277751510  
B 0.8356062048 2.0703000000 58.8922851655  
B 0.8356765950 2.0703000000 54.7573447051  
B 0.8356020642 2.0703000000 50.6220902304  
B 0.8355109710 2.0703000000 46.4876207914  
B 0.8354737056 2.0703000000 42.3529943453  
B 0.8350762080 2.0703000000 38.2188389207  
B 0.8354115966 2.0703000000 34.0828779137  
B 0.8354364402 2.0703000000 29.9457393531  
B 0.8354530026 2.0703000000 25.8086007925  
B 0.8355689394 2.0703000000 21.6718547498  
B 0.8356351890 2.0703000000 17.5356582322  
B 0.8341114482 2.0703000000 13.4032298863  
B 0.8008251648 2.0703000000 9.3437313643  
B 2.0703000000 2.0703000000 65.9359401980  
B 2.0703000000 2.0703000000 61.7951119692  
B 2.0703000000 2.0703000000 57.6593864730  
B 2.0703000000 2.0703000000 53.5242105019  
B 2.0703000000 2.0703000000 49.3891130343  
B 2.0703000000 2.0703000000 45.2545650918  
B 2.0703000000 2.0703000000 41.1198601421  
B 2.0703000000 2.0703000000 36.9862542425  
B 2.0703000000 2.0703000000 32.8490371783  
B 2.0703000000 2.0703000000 28.7118986177  
B 2.0703000000 2.0703000000 24.5748385607  
B 2.0703000000 2.0703000000 20.4382495251  
B 2.0703000000 2.0703000000 16.3026025325  
B 2.0703000000 2.0703000000 12.1829702698  
B 2.0703000000 2.0703000000 8.3450873486  
B 2.0703000000 2.0703000000 68.4689366457  
B 2.0703000000 2.0703000000 64.2622439150  
B 2.0703000000 2.0703000000 60.1262829081  
B 2.0703000000 2.0703000000 55.9909499298  
B 2.0703000000 2.0703000000 51.8555384479  
B 2.0703000000 2.0703000000 47.7207549946  
B 2.0703000000 2.0703000000 43.5861285485  
B 2.0703000000 2.0703000000 39.4514235989  
B 2.0703000000 2.0703000000 35.3165616420  
B 2.0703000000 2.0703000000 31.1795015850  
B 2.0703000000 2.0703000000 27.0423630244  
B 2.0703000000 2.0703000000 22.9054599745  
B 2.0703000000 2.0703000000 18.7687139318  
B 2.0703000000 2.0703000000 14.6320463927  
B 2.0703000000 2.0703000000 10.4990685217  
B 2.0703000000 0.8409682818 67.1770032626  
B 2.0703000000 0.8355979236 63.0277751510  
B 2.0703000000 0.8356062048 58.8922851655  
B 2.0703000000 0.8356765950 54.7573447051  
B 2.0703000000 0.8356020642 50.6220902304  
B 2.0703000000 0.8355109710 46.4876207914  
B 2.0703000000 0.8354737056 42.3529943453  
B 2.0703000000 0.8350762080 38.2188389207  
B 2.0703000000 0.8354115966 34.0828779137  
B 2.0703000000 0.8354364402 29.9457393531  
B 2.0703000000 0.8354530026 25.8086007925  
B 2.0703000000 0.8355689394 21.6718547498  
B 2.0703000000 0.8356351890 17.5356582322  
B 2.0703000000 0.8341114482 13.4032298863  
B 2.0703000000 0.8008251648 9.3437313643  
B 2.0703000000 3.2996317182 67.1770032626  
B 2.0703000000 3.3050020764 63.0277751510  
B 2.0703000000 3.3049937952 58.8922851655  
B 2.0703000000 3.3049234050 54.7573447051  
B 2.0703000000 3.3049979358 50.6220902304  
B 2.0703000000 3.3050890290 46.4876207914  
B 2.0703000000 3.3051262944 42.3529943453  
B 2.0703000000 3.3055237920 38.2188389207  
B 2.0703000000 3.3051884034 34.0828779137  
B 2.0703000000 3.3051635598 29.9457393531  
B 2.0703000000 3.3051469974 25.8086007925  
B 2.0703000000 3.3050310606 21.6718547498  
B 2.0703000000 3.3049648110 17.5356582322  
B 2.0703000000 3.3064885518 13.4032298863  
B 2.0703000000 3.3397748352 9.3437313643  
B 3.2996317182 2.0703000000 67.1770032626  
B 3.3050020764 2.0703000000 63.0277751510  
B 3.3049937952 2.0703000000 58.8922851655  
B 3.3049234050 2.0703000000 54.7573447051  
B 3.3049979358 2.0703000000 50.6220902304  
B 3.3050890290 2.0703000000 46.4876207914  
B 3.3051262944 2.0703000000 42.3529943453  
B 3.3055237920 2.0703000000 38.2188389207  
B 3.3051884034 2.0703000000 34.0828779137  
B 3.3051635598 2.0703000000 29.9457393531  
B 3.3051469974 2.0703000000 25.8086007925  
B 3.3050310606 2.0703000000 21.6718547498  
B 3.3049648110 2.0703000000 17.5356582322  
B 3.3064885518 2.0703000000 13.4032298863  
B 3.3397748352 2.0703000000 9.3437313643  
Li 2.0703000000 2.0703000000 71.8997700000  

