&INPUTPP
    prefix='CaB6_1x1_dipole_corr',
    outdir='.' 
    filplot='tmp/pot.dat'
    plot_num =11
/

